\ Generated by MPModelProtoExporter
\   Name             : 
\   Format           : Free
\   Constraints      : 1
\   Variables        : 1
\     Binary         : 1
\     Integer        : 0
\     Continuous     : 0
Minimize
 Obj: 
Subject to
 _0: +1 Mitigation[mitigation_ActionTerm[domain_8j2r1g,_compositeLabels_[AbstractChar[what_IncomingData,_type_Encryption,_value_Encrypted]],_type_AddSink],_cost_0.0,_required_[]]  >= 1
Bounds
 0 <= Mitigation[mitigation_ActionTerm[domain_8j2r1g,_compositeLabels_[AbstractChar[what_IncomingData,_type_Encryption,_value_Encrypted]],_type_AddSink],_cost_0.0,_required_[]] <= 1
Binaries
 Mitigation[mitigation_ActionTerm[domain_8j2r1g,_compositeLabels_[AbstractChar[what_IncomingData,_type_Encryption,_value_Encrypted]],_type_AddSink],_cost_0.0,_required_[]]
End
